p tw 366 25621 1 
1 2 
1 3 
1 4 
1 5 
1 6 
1 7 
1 8 
1 9 
1 10 
1 11 
1 12 
1 13 
1 14 
1 15 
1 16 
1 17 
1 18 
1 19 
1 20 
1 21 
1 22 
1 23 
1 24 
1 25 
1 26 
1 27 
1 28 
1 29 
1 30 
1 31 
1 32 
1 33 
1 34 
1 35 
1 36 
1 37 
1 38 
1 39 
1 40 
1 41 
1 42 
1 43 
1 44 
1 45 
1 46 
1 47 
1 48 
1 49 
1 50 
1 51 
1 52 
1 53 
1 54 
1 55 
1 56 
1 57 
1 58 
1 59 
1 60 
1 61 
1 62 
1 63 
1 64 
1 65 
1 66 
1 67 
1 68 
1 69 
1 70 
1 71 
1 72 
1 73 
1 74 
1 75 
1 76 
1 77 
1 78 
1 79 
1 80 
1 81 
1 82 
1 83 
1 84 
1 85 
1 86 
1 87 
1 88 
1 89 
1 90 
1 91 
1 92 
1 93 
1 94 
1 95 
1 96 
1 97 
1 98 
1 99 
1 100 
1 101 
1 102 
1 103 
1 104 
1 105 
1 106 
1 107 
1 108 
1 109 
1 110 
1 111 
1 112 
1 113 
1 114 
1 115 
1 116 
1 117 
1 118 
1 119 
1 120 
1 121 
1 122 
1 123 
1 124 
1 125 
1 126 
1 127 
1 128 
1 129 
1 130 
1 131 
1 132 
1 133 
1 134 
1 135 
1 136 
1 137 
1 138 
1 139 
1 140 
1 141 
1 142 
1 143 
1 144 
1 145 
1 146 
1 147 
1 148 
1 149 
1 150 
1 151 
1 152 
1 153 
1 154 
1 155 
1 156 
1 157 
1 158 
1 159 
1 160 
1 161 
1 162 
1 163 
1 164 
1 165 
1 166 
1 167 
1 168 
1 169 
1 170 
1 171 
1 172 
1 173 
1 174 
1 175 
1 176 
1 177 
1 178 
1 179 
1 180 
1 181 
1 182 
1 183 
2 184 
2 185 
2 186 
2 187 
2 188 
2 189 
2 190 
2 191 
2 192 
2 193 
2 194 
2 195 
2 196 
2 197 
2 198 
2 199 
2 200 
2 201 
2 202 
2 203 
2 204 
2 205 
2 206 
2 207 
2 208 
2 209 
2 210 
2 211 
2 212 
2 213 
2 214 
2 215 
2 216 
2 217 
2 218 
2 219 
2 220 
2 221 
2 222 
2 223 
2 224 
2 225 
2 226 
2 227 
2 228 
2 229 
2 230 
2 231 
2 232 
2 233 
2 234 
2 235 
2 236 
2 237 
2 238 
2 239 
2 240 
2 241 
2 242 
2 243 
2 244 
2 245 
2 246 
2 247 
2 248 
2 249 
2 250 
2 251 
2 252 
2 253 
2 254 
2 255 
2 256 
2 257 
2 258 
2 259 
2 260 
2 261 
2 262 
2 263 
2 264 
2 265 
2 266 
2 267 
2 268 
2 269 
2 270 
2 271 
2 272 
2 273 
2 274 
2 275 
2 276 
2 277 
2 278 
2 279 
2 280 
2 281 
2 282 
2 283 
2 284 
2 285 
2 286 
2 287 
2 288 
2 289 
2 290 
2 291 
2 292 
2 293 
2 294 
2 295 
2 296 
2 297 
2 298 
2 299 
2 300 
2 301 
2 302 
2 303 
2 304 
2 305 
2 306 
2 307 
2 308 
2 309 
2 310 
2 311 
2 312 
2 313 
2 314 
2 315 
2 316 
2 317 
2 318 
2 319 
2 320 
2 321 
2 322 
2 323 
2 324 
2 325 
2 326 
2 327 
2 328 
2 329 
2 330 
2 331 
2 332 
2 333 
2 334 
2 335 
2 336 
2 337 
2 338 
2 339 
2 340 
2 341 
2 342 
2 343 
2 344 
2 345 
2 346 
2 347 
2 348 
2 349 
2 350 
2 351 
2 352 
2 353 
2 354 
2 355 
2 356 
2 357 
2 358 
2 359 
2 360 
2 361 
2 362 
2 363 
2 364 
2 365 
2 366 
1 185 
1 198 
1 211 
1 224 
1 237 
1 250 
1 263 
1 276 
1 289 
1 302 
1 315 
1 328 
1 341 
1 354 
2 186 
2 199 
2 212 
2 225 
2 238 
2 251 
2 264 
2 277 
2 290 
2 303 
2 316 
2 329 
2 342 
2 354 
3 187 
3 200 
3 213 
3 226 
3 239 
3 252 
3 265 
3 278 
3 291 
3 304 
3 317 
3 330 
3 343 
3 354 
4 188 
4 201 
4 214 
4 227 
4 240 
4 253 
4 266 
4 279 
4 292 
4 305 
4 318 
4 331 
4 344 
4 354 
5 189 
5 202 
5 215 
5 228 
5 241 
5 254 
5 267 
5 280 
5 293 
5 306 
5 319 
5 332 
5 345 
5 354 
6 190 
6 203 
6 216 
6 229 
6 242 
6 255 
6 268 
6 281 
6 294 
6 307 
6 320 
6 333 
6 346 
6 354 
7 191 
7 204 
7 217 
7 230 
7 243 
7 256 
7 269 
7 282 
7 295 
7 308 
7 321 
7 334 
7 347 
7 354 
8 192 
8 205 
8 218 
8 231 
8 244 
8 257 
8 270 
8 283 
8 296 
8 309 
8 322 
8 335 
8 348 
8 354 
9 193 
9 206 
9 219 
9 232 
9 245 
9 258 
9 271 
9 284 
9 297 
9 310 
9 323 
9 336 
9 349 
9 354 
10 194 
10 207 
10 220 
10 233 
10 246 
10 259 
10 272 
10 285 
10 298 
10 311 
10 324 
10 337 
10 350 
10 354 
11 195 
11 208 
11 221 
11 234 
11 247 
11 260 
11 273 
11 286 
11 299 
11 312 
11 325 
11 338 
11 351 
11 354 
12 196 
12 209 
12 222 
12 235 
12 248 
12 261 
12 274 
12 287 
12 300 
12 313 
12 326 
12 339 
12 352 
12 354 
13 197 
13 210 
13 223 
13 236 
13 249 
13 262 
13 275 
13 288 
13 301 
13 314 
13 327 
13 340 
13 353 
13 354 
14 185 
14 205 
14 219 
14 233 
14 247 
14 261 
14 275 
14 277 
14 291 
14 305 
14 319 
14 333 
14 347 
14 355 
15 186 
15 198 
15 218 
15 235 
15 243 
15 258 
15 267 
15 278 
15 294 
15 312 
15 324 
15 331 
15 353 
15 355 
16 187 
16 199 
16 211 
16 232 
16 249 
16 257 
16 272 
16 281 
16 292 
16 308 
16 326 
16 338 
16 345 
16 355 
17 188 
17 203 
17 213 
17 224 
17 246 
17 251 
17 271 
17 286 
17 295 
17 306 
17 322 
17 340 
17 352 
17 355 
18 189 
18 210 
18 217 
18 227 
18 237 
18 260 
18 265 
18 285 
18 300 
18 309 
18 320 
18 336 
18 342 
18 355 
19 190 
19 200 
19 212 
19 231 
19 241 
19 250 
19 274 
19 279 
19 299 
19 314 
19 323 
19 334 
19 350 
19 355 
20 191 
20 208 
20 214 
20 226 
20 245 
20 255 
20 263 
20 288 
20 293 
20 313 
20 316 
20 337 
20 348 
20 355 
21 192 
21 206 
21 222 
21 228 
21 240 
21 259 
21 269 
21 276 
21 290 
21 307 
21 327 
21 330 
21 351 
21 355 
22 193 
22 209 
22 220 
22 236 
22 242 
22 254 
22 273 
22 283 
22 289 
22 304 
22 321 
22 329 
22 344 
22 355 
23 194 
23 202 
23 223 
23 234 
23 238 
23 256 
23 268 
23 287 
23 297 
23 302 
23 318 
23 335 
23 343 
23 355 
24 195 
24 201 
24 216 
24 225 
24 248 
24 252 
24 270 
24 282 
24 301 
24 311 
24 315 
24 332 
24 349 
24 355 
25 196 
25 207 
25 215 
25 230 
25 239 
25 262 
25 266 
25 284 
25 296 
25 303 
25 325 
25 328 
25 346 
25 355 
26 197 
26 204 
26 221 
26 229 
26 244 
26 253 
26 264 
26 280 
26 298 
26 310 
26 317 
26 339 
26 341 
26 355 
27 185 
27 206 
27 220 
27 234 
27 248 
27 262 
27 264 
27 278 
27 292 
27 306 
27 320 
27 334 
27 348 
27 356 
28 186 
28 205 
28 222 
28 230 
28 245 
28 254 
28 265 
28 281 
28 299 
28 311 
28 318 
28 340 
28 341 
28 356 
29 187 
29 198 
29 219 
29 236 
29 244 
29 259 
29 268 
29 279 
29 295 
29 313 
29 325 
29 332 
29 342 
29 356 
30 188 
30 200 
30 211 
30 233 
30 238 
30 258 
30 273 
30 282 
30 293 
30 309 
30 327 
30 339 
30 346 
30 356 
31 189 
31 204 
31 214 
31 224 
31 247 
31 252 
31 272 
31 287 
31 296 
31 307 
31 323 
31 329 
31 353 
31 356 
32 190 
32 199 
32 218 
32 228 
32 237 
32 261 
32 266 
32 286 
32 301 
32 310 
32 321 
32 337 
32 343 
32 356 
33 191 
33 201 
33 213 
33 232 
33 242 
33 250 
33 275 
33 280 
33 300 
33 303 
33 324 
33 335 
33 351 
33 356 
34 192 
34 209 
34 215 
34 227 
34 246 
34 256 
34 263 
34 277 
34 294 
34 314 
34 317 
34 338 
34 349 
34 356 
35 193 
35 207 
35 223 
35 229 
35 241 
35 260 
35 270 
35 276 
35 291 
35 308 
35 316 
35 331 
35 352 
35 356 
36 194 
36 210 
36 221 
36 225 
36 243 
36 255 
36 274 
36 284 
36 289 
36 305 
36 322 
36 330 
36 345 
36 356 
37 195 
37 203 
37 212 
37 235 
37 239 
37 257 
37 269 
37 288 
37 298 
37 302 
37 319 
37 336 
37 344 
37 356 
38 196 
38 202 
38 217 
38 226 
38 249 
38 253 
38 271 
38 283 
38 290 
38 312 
38 315 
38 333 
38 350 
38 356 
39 197 
39 208 
39 216 
39 231 
39 240 
39 251 
39 267 
39 285 
39 297 
39 304 
39 326 
39 328 
39 347 
39 356 
40 185 
40 207 
40 221 
40 235 
40 249 
40 251 
40 265 
40 279 
40 293 
40 307 
40 321 
40 335 
40 349 
40 357 
41 186 
41 209 
41 217 
41 232 
41 241 
41 252 
41 268 
41 286 
41 298 
41 305 
41 327 
41 328 
41 348 
41 357 
42 187 
42 206 
42 223 
42 231 
42 246 
42 255 
42 266 
42 282 
42 300 
42 312 
42 319 
42 329 
42 341 
42 357 
43 188 
43 198 
43 220 
43 225 
43 245 
43 260 
43 269 
43 280 
43 296 
43 314 
43 326 
43 333 
43 343 
43 357 
44 189 
44 201 
44 211 
44 234 
44 239 
44 259 
44 274 
44 283 
44 294 
44 310 
44 316 
44 340 
44 347 
44 357 
45 190 
45 205 
45 215 
45 224 
45 248 
45 253 
45 273 
45 288 
45 297 
45 308 
45 324 
45 330 
45 342 
45 357 
46 191 
46 200 
46 219 
46 229 
46 237 
46 262 
46 267 
46 287 
46 290 
46 311 
46 322 
46 338 
46 344 
46 357 
47 192 
47 202 
47 214 
47 233 
47 243 
47 250 
47 264 
47 281 
47 301 
47 304 
47 325 
47 336 
47 352 
47 357 
48 193 
48 210 
48 216 
48 228 
48 247 
48 257 
48 263 
48 278 
48 295 
48 303 
48 318 
48 339 
48 350 
48 357 
49 194 
49 208 
49 212 
49 230 
49 242 
49 261 
49 271 
49 276 
49 292 
49 309 
49 317 
49 332 
49 353 
49 357 
50 195 
50 199 
50 222 
50 226 
50 244 
50 256 
50 275 
50 285 
50 289 
50 306 
50 323 
50 331 
50 346 
50 357 
51 196 
51 204 
51 213 
51 236 
51 240 
51 258 
51 270 
51 277 
51 299 
51 302 
51 320 
51 337 
51 345 
51 357 
52 197 
52 203 
52 218 
52 227 
52 238 
52 254 
52 272 
52 284 
52 291 
52 313 
52 315 
52 334 
52 351 
52 357 
53 185 
53 208 
53 222 
53 236 
53 238 
53 252 
53 266 
53 280 
53 294 
53 308 
53 322 
53 336 
53 350 
53 358 
54 186 
54 204 
54 219 
54 228 
54 239 
54 255 
54 273 
54 285 
54 292 
54 314 
54 315 
54 335 
54 352 
54 358 
55 187 
55 210 
55 218 
55 233 
55 242 
55 253 
55 269 
55 287 
55 299 
55 306 
55 316 
55 328 
55 349 
55 358 
56 188 
56 207 
56 212 
56 232 
56 247 
56 256 
56 267 
56 283 
56 301 
56 313 
56 320 
56 330 
56 341 
56 358 
57 189 
57 198 
57 221 
57 226 
57 246 
57 261 
57 270 
57 281 
57 297 
57 303 
57 327 
57 334 
57 344 
57 358 
58 190 
58 202 
58 211 
58 235 
58 240 
58 260 
58 275 
58 284 
58 295 
58 311 
58 317 
58 329 
58 348 
58 358 
59 191 
59 206 
59 216 
59 224 
59 249 
59 254 
59 274 
59 277 
59 298 
59 309 
59 325 
59 331 
59 343 
59 358 
60 192 
60 201 
60 220 
60 230 
60 237 
60 251 
60 268 
60 288 
60 291 
60 312 
60 323 
60 339 
60 345 
60 358 
61 193 
61 203 
61 215 
61 234 
61 244 
61 250 
61 265 
61 282 
61 290 
61 305 
61 326 
61 337 
61 353 
61 358 
62 194 
62 199 
62 217 
62 229 
62 248 
62 258 
62 263 
62 279 
62 296 
62 304 
62 319 
62 340 
62 351 
62 358 
63 195 
63 209 
63 213 
63 231 
63 243 
63 262 
63 272 
63 276 
63 293 
63 310 
63 318 
63 333 
63 342 
63 358 
64 196 
64 200 
64 223 
64 227 
64 245 
64 257 
64 264 
64 286 
64 289 
64 307 
64 324 
64 332 
64 347 
64 358 
65 197 
65 205 
65 214 
65 225 
65 241 
65 259 
65 271 
65 278 
65 300 
65 302 
65 321 
65 338 
65 346 
65 358 
66 185 
66 209 
66 223 
66 225 
66 239 
66 253 
66 267 
66 281 
66 295 
66 309 
66 323 
66 337 
66 351 
66 359 
67 186 
67 206 
67 215 
67 226 
67 242 
67 260 
67 272 
67 279 
67 301 
67 302 
67 322 
67 339 
67 347 
67 359 
68 187 
68 205 
68 220 
68 229 
68 240 
68 256 
68 274 
68 286 
68 293 
68 303 
68 315 
68 336 
68 353 
68 359 
69 188 
69 199 
69 219 
69 234 
69 243 
69 254 
69 270 
69 288 
69 300 
69 307 
69 317 
69 328 
69 350 
69 359 
70 189 
70 208 
70 213 
70 233 
70 248 
70 257 
70 268 
70 284 
70 290 
70 314 
70 321 
70 331 
70 341 
70 359 
71 190 
71 198 
71 222 
71 227 
71 247 
71 262 
71 271 
71 282 
71 298 
71 304 
71 316 
71 335 
71 345 
71 359 
72 191 
72 203 
72 211 
72 236 
72 241 
72 261 
72 264 
72 285 
72 296 
72 312 
72 318 
72 330 
72 349 
72 359 
73 192 
73 207 
73 217 
73 224 
73 238 
73 255 
73 275 
73 278 
73 299 
73 310 
73 326 
73 332 
73 344 
73 359 
74 193 
74 202 
74 221 
74 231 
74 237 
74 252 
74 269 
74 277 
74 292 
74 313 
74 324 
74 340 
74 346 
74 359 
75 194 
75 204 
75 216 
75 235 
75 245 
75 250 
75 266 
75 283 
75 291 
75 306 
75 327 
75 338 
75 342 
75 359 
76 195 
76 200 
76 218 
76 230 
76 249 
76 259 
76 263 
76 280 
76 297 
76 305 
76 320 
76 329 
76 352 
76 359 
77 196 
77 210 
77 214 
77 232 
77 244 
77 251 
77 273 
77 276 
77 294 
77 311 
77 319 
77 334 
77 343 
77 359 
78 197 
78 201 
78 212 
78 228 
78 246 
78 258 
78 265 
78 287 
78 289 
78 308 
78 325 
78 333 
78 348 
78 359 
79 185 
79 210 
79 212 
79 226 
79 240 
79 254 
79 268 
79 282 
79 296 
79 310 
79 324 
79 338 
79 352 
79 360 
80 186 
80 202 
80 213 
80 229 
80 247 
80 259 
80 266 
80 288 
80 289 
80 309 
80 326 
80 334 
80 349 
80 360 
81 187 
81 207 
81 216 
81 227 
81 243 
81 261 
81 273 
81 280 
81 290 
81 302 
81 323 
81 340 
81 348 
81 360 
82 188 
82 206 
82 221 
82 230 
82 241 
82 257 
82 275 
82 287 
82 294 
82 304 
82 315 
82 337 
82 342 
82 360 
83 189 
83 200 
83 220 
83 235 
83 244 
83 255 
83 271 
83 277 
83 301 
83 308 
83 318 
83 328 
83 351 
83 360 
84 190 
84 209 
84 214 
84 234 
84 249 
84 258 
84 269 
84 285 
84 291 
84 303 
84 322 
84 332 
84 341 
84 360 
85 191 
85 198 
85 223 
85 228 
85 248 
85 251 
85 272 
85 283 
85 299 
85 305 
85 317 
85 336 
85 346 
85 360 
86 192 
86 204 
86 211 
86 225 
86 242 
86 262 
86 265 
86 286 
86 297 
86 313 
86 319 
86 331 
86 350 
86 360 
87 193 
87 208 
87 218 
87 224 
87 239 
87 256 
87 264 
87 279 
87 300 
87 311 
87 327 
87 333 
87 345 
87 360 
88 194 
88 203 
88 222 
88 232 
88 237 
88 253 
88 270 
88 278 
88 293 
88 314 
88 325 
88 329 
88 347 
88 360 
89 195 
89 205 
89 217 
89 236 
89 246 
89 250 
89 267 
89 284 
89 292 
89 307 
89 316 
89 339 
89 343 
89 360 
90 196 
90 201 
90 219 
90 231 
90 238 
90 260 
90 263 
90 281 
90 298 
90 306 
90 321 
90 330 
90 353 
90 360 
91 197 
91 199 
91 215 
91 233 
91 245 
91 252 
91 274 
91 276 
91 295 
91 312 
91 320 
91 335 
91 344 
91 360 
92 185 
92 199 
92 213 
92 227 
92 241 
92 255 
92 269 
92 283 
92 297 
92 311 
92 325 
92 339 
92 353 
92 361 
93 186 
93 200 
93 216 
93 234 
93 246 
93 253 
93 275 
93 276 
93 296 
93 313 
93 321 
93 336 
93 345 
93 361 
94 187 
94 203 
94 214 
94 230 
94 248 
94 260 
94 267 
94 277 
94 289 
94 310 
94 327 
94 335 
94 350 
94 361 
95 188 
95 208 
95 217 
95 228 
95 244 
95 262 
95 274 
95 281 
95 291 
95 302 
95 324 
95 329 
95 349 
95 361 
96 189 
96 207 
96 222 
96 231 
96 242 
96 258 
96 264 
96 288 
96 295 
96 305 
96 315 
96 338 
96 343 
96 361 
97 190 
97 201 
97 221 
97 236 
97 245 
97 256 
97 272 
97 278 
97 290 
97 309 
97 319 
97 328 
97 352 
97 361 
98 191 
98 210 
98 215 
98 235 
98 238 
98 259 
98 270 
98 286 
98 292 
98 304 
98 323 
98 333 
98 341 
98 361 
99 192 
99 198 
99 212 
99 229 
99 249 
99 252 
99 273 
99 284 
99 300 
99 306 
99 318 
99 337 
99 347 
99 361 
100 193 
100 205 
100 211 
100 226 
100 243 
100 251 
100 266 
100 287 
100 298 
100 314 
100 320 
100 332 
100 351 
100 361 
101 194 
101 209 
101 219 
101 224 
101 240 
101 257 
101 265 
101 280 
101 301 
101 312 
101 316 
101 334 
101 346 
101 361 
102 195 
102 204 
102 223 
102 233 
102 237 
102 254 
102 271 
102 279 
102 294 
102 303 
102 326 
102 330 
102 348 
102 361 
103 196 
103 206 
103 218 
103 225 
103 247 
103 250 
103 268 
103 285 
103 293 
103 308 
103 317 
103 340 
103 344 
103 361 
104 197 
104 202 
104 220 
104 232 
104 239 
104 261 
104 263 
104 282 
104 299 
104 307 
104 322 
104 331 
104 342 
104 361 
105 185 
105 200 
105 214 
105 228 
105 242 
105 256 
105 270 
105 284 
105 298 
105 312 
105 326 
105 340 
105 342 
105 362 
106 186 
106 203 
106 221 
106 233 
106 240 
106 262 
106 263 
106 283 
106 300 
106 308 
106 323 
106 332 
106 343 
106 362 
107 187 
107 201 
107 217 
107 235 
107 247 
107 254 
107 264 
107 276 
107 297 
107 314 
107 322 
107 337 
107 346 
107 362 
108 188 
108 204 
108 215 
108 231 
108 249 
108 261 
108 268 
108 278 
108 289 
108 311 
108 316 
108 336 
108 351 
108 362 
109 189 
109 209 
109 218 
109 229 
109 245 
109 251 
109 275 
109 282 
109 292 
109 302 
109 325 
109 330 
109 350 
109 362 
110 190 
110 208 
110 223 
110 232 
110 243 
110 259 
110 265 
110 277 
110 296 
110 306 
110 315 
110 339 
110 344 
110 362 
111 191 
111 202 
111 222 
111 225 
111 246 
111 257 
111 273 
111 279 
111 291 
111 310 
111 320 
111 328 
111 353 
111 362 
112 192 
112 199 
112 216 
112 236 
112 239 
112 260 
112 271 
112 287 
112 293 
112 305 
112 324 
112 334 
112 341 
112 362 
113 193 
113 198 
113 213 
113 230 
113 238 
113 253 
113 274 
113 285 
113 301 
113 307 
113 319 
113 338 
113 348 
113 362 
114 194 
114 206 
114 211 
114 227 
114 244 
114 252 
114 267 
114 288 
114 299 
114 303 
114 321 
114 333 
114 352 
114 362 
115 195 
115 210 
115 220 
115 224 
115 241 
115 258 
115 266 
115 281 
115 290 
115 313 
115 317 
115 335 
115 347 
115 362 
116 196 
116 205 
116 212 
116 234 
116 237 
116 255 
116 272 
116 280 
116 295 
116 304 
116 327 
116 331 
116 349 
116 362 
117 197 
117 207 
117 219 
117 226 
117 248 
117 250 
117 269 
117 286 
117 294 
117 309 
117 318 
117 329 
117 345 
117 362 
118 185 
118 201 
118 215 
118 229 
118 243 
118 257 
118 271 
118 285 
118 299 
118 313 
118 327 
118 329 
118 343 
118 363 
119 186 
119 208 
119 220 
119 227 
119 249 
119 250 
119 270 
119 287 
119 295 
119 310 
119 319 
119 330 
119 346 
119 363 
120 187 
120 204 
120 222 
120 234 
120 241 
120 251 
120 263 
120 284 
120 301 
120 309 
120 324 
120 333 
120 344 
120 363 
121 188 
121 202 
121 218 
121 236 
121 248 
121 255 
121 265 
121 276 
121 298 
121 303 
121 323 
121 338 
121 347 
121 363 
122 189 
122 205 
122 216 
122 232 
122 238 
122 262 
122 269 
122 279 
122 289 
122 312 
122 317 
122 337 
122 352 
122 363 
123 190 
123 210 
123 219 
123 230 
123 246 
123 252 
123 264 
123 283 
123 293 
123 302 
123 326 
123 331 
123 351 
123 363 
124 191 
124 209 
124 212 
124 233 
124 244 
124 260 
124 266 
124 278 
124 297 
124 307 
124 315 
124 340 
124 345 
124 363 
125 192 
125 203 
125 223 
125 226 
125 247 
125 258 
125 274 
125 280 
125 292 
125 311 
125 321 
125 328 
125 342 
125 363 
126 193 
126 200 
126 217 
126 225 
126 240 
126 261 
126 272 
126 288 
126 294 
126 306 
126 325 
126 335 
126 341 
126 363 
127 194 
127 198 
127 214 
127 231 
127 239 
127 254 
127 275 
127 286 
127 290 
127 308 
127 320 
127 339 
127 349 
127 363 
128 195 
128 207 
128 211 
128 228 
128 245 
128 253 
128 268 
128 277 
128 300 
128 304 
128 322 
128 334 
128 353 
128 363 
129 196 
129 199 
129 221 
129 224 
129 242 
129 259 
129 267 
129 282 
129 291 
129 314 
129 318 
129 336 
129 348 
129 363 
130 197 
130 206 
130 213 
130 235 
130 237 
130 256 
130 273 
130 281 
130 296 
130 305 
130 316 
130 332 
130 350 
130 363 
131 185 
131 202 
131 216 
131 230 
131 244 
131 258 
131 272 
131 286 
131 300 
131 314 
131 316 
131 330 
131 344 
131 364 
132 186 
132 207 
132 214 
132 236 
132 237 
132 257 
132 274 
132 282 
132 297 
132 306 
132 317 
132 333 
132 351 
132 364 
133 187 
133 209 
133 221 
133 228 
133 238 
133 250 
133 271 
133 288 
133 296 
133 311 
133 320 
133 331 
133 347 
133 364 
134 188 
134 205 
134 223 
134 235 
134 242 
134 252 
134 263 
134 285 
134 290 
134 310 
134 325 
134 334 
134 345 
134 364 
135 189 
135 203 
135 219 
135 225 
135 249 
135 256 
135 266 
135 276 
135 299 
135 304 
135 324 
135 339 
135 348 
135 364 
136 190 
136 206 
136 217 
136 233 
136 239 
136 251 
136 270 
136 280 
136 289 
136 313 
136 318 
136 338 
136 353 
136 364 
137 191 
137 199 
137 220 
137 231 
137 247 
137 253 
137 265 
137 284 
137 294 
137 302 
137 327 
137 332 
137 352 
137 364 
138 192 
138 210 
138 213 
138 234 
138 245 
138 261 
138 267 
138 279 
138 298 
138 308 
138 315 
138 329 
138 346 
138 364 
139 193 
139 204 
139 212 
139 227 
139 248 
139 259 
139 275 
139 281 
139 293 
139 312 
139 322 
139 328 
139 343 
139 364 
140 194 
140 201 
140 218 
140 226 
140 241 
140 262 
140 273 
140 277 
140 295 
140 307 
140 326 
140 336 
140 341 
140 364 
141 195 
141 198 
141 215 
141 232 
141 240 
141 255 
141 264 
141 287 
141 291 
141 309 
141 321 
141 340 
141 350 
141 364 
142 196 
142 208 
142 211 
142 229 
142 246 
142 254 
142 269 
142 278 
142 301 
142 305 
142 323 
142 335 
142 342 
142 364 
143 197 
143 200 
143 222 
143 224 
143 243 
143 260 
143 268 
143 283 
143 292 
143 303 
143 319 
143 337 
143 349 
143 364 
144 185 
144 203 
144 217 
144 231 
144 245 
144 259 
144 273 
144 287 
144 301 
144 303 
144 317 
144 331 
144 345 
144 365 
145 186 
145 201 
145 223 
145 224 
145 244 
145 261 
145 269 
145 284 
145 293 
145 304 
145 320 
145 338 
145 350 
145 365 
146 187 
146 208 
146 215 
146 225 
146 237 
146 258 
146 275 
146 283 
146 298 
146 307 
146 318 
146 334 
146 352 
146 365 
147 188 
147 210 
147 222 
147 229 
147 239 
147 250 
147 272 
147 277 
147 297 
147 312 
147 321 
147 332 
147 348 
147 365 
148 189 
148 206 
148 212 
148 236 
148 243 
148 253 
148 263 
148 286 
148 291 
148 311 
148 326 
148 335 
148 346 
148 365 
149 190 
149 204 
149 220 
149 226 
149 238 
149 257 
149 267 
149 276 
149 300 
149 305 
149 325 
149 340 
149 349 
149 365 
150 191 
150 207 
150 218 
150 234 
150 240 
150 252 
150 271 
150 281 
150 289 
150 314 
150 319 
150 339 
150 342 
150 365 
151 192 
151 200 
151 221 
151 232 
151 248 
151 254 
151 266 
151 285 
151 295 
151 302 
151 316 
151 333 
151 353 
151 365 
152 193 
152 199 
152 214 
152 235 
152 246 
152 262 
152 268 
152 280 
152 299 
152 309 
152 315 
152 330 
152 347 
152 365 
153 194 
153 205 
153 213 
153 228 
153 249 
153 260 
153 264 
153 282 
153 294 
153 313 
153 323 
153 328 
153 344 
153 365 
154 195 
154 202 
154 219 
154 227 
154 242 
154 251 
154 274 
154 278 
154 296 
154 308 
154 327 
154 337 
154 341 
154 365 
155 196 
155 198 
155 216 
155 233 
155 241 
155 256 
155 265 
155 288 
155 292 
155 310 
155 322 
155 329 
155 351 
155 365 
156 197 
156 209 
156 211 
156 230 
156 247 
156 255 
156 270 
156 279 
156 290 
156 306 
156 324 
156 336 
156 343 
156 365 
157 185 
157 204 
157 218 
157 232 
157 246 
157 260 
157 274 
157 288 
157 290 
157 304 
157 318 
157 332 
157 346 
157 366 
158 186 
158 210 
158 211 
158 231 
158 248 
158 256 
158 271 
158 280 
158 291 
158 307 
158 325 
158 337 
158 344 
158 366 
159 187 
159 202 
159 212 
159 224 
159 245 
159 262 
159 270 
159 285 
159 294 
159 305 
159 321 
159 339 
159 351 
159 366 
160 188 
160 209 
160 216 
160 226 
160 237 
160 259 
160 264 
160 284 
160 299 
160 308 
160 319 
160 335 
160 353 
160 366 
161 189 
161 199 
161 223 
161 230 
161 240 
161 250 
161 273 
161 278 
161 298 
161 313 
161 322 
161 333 
161 349 
161 366 
162 190 
162 207 
162 213 
162 225 
162 244 
162 254 
162 263 
162 287 
162 292 
162 312 
162 327 
162 336 
162 347 
162 366 
163 191 
163 205 
163 221 
163 227 
163 239 
163 258 
163 268 
163 276 
163 301 
163 306 
163 326 
163 329 
163 350 
163 366 
164 192 
164 208 
164 219 
164 235 
164 241 
164 253 
164 272 
164 282 
164 289 
164 303 
164 320 
164 340 
164 343 
164 366 
165 193 
165 201 
165 222 
165 233 
165 249 
165 255 
165 267 
165 286 
165 296 
165 302 
165 317 
165 334 
165 342 
165 366 
166 194 
166 200 
166 215 
166 236 
166 247 
166 251 
166 269 
166 281 
166 300 
166 310 
166 315 
166 331 
166 348 
166 366 
167 195 
167 206 
167 214 
167 229 
167 238 
167 261 
167 265 
167 283 
167 295 
167 314 
167 324 
167 328 
167 345 
167 366 
168 196 
168 203 
168 220 
168 228 
168 243 
168 252 
168 275 
168 279 
168 297 
168 309 
168 316 
168 338 
168 341 
168 366 
169 197 
169 198 
169 217 
169 234 
169 242 
169 257 
169 266 
169 277 
169 293 
169 311 
169 323 
169 330 
169 352 
169 366 
170 184 
170 185 
170 186 
170 187 
170 188 
170 189 
170 190 
170 191 
170 192 
170 193 
170 194 
170 195 
170 196 
170 197 
171 184 
171 198 
171 199 
171 200 
171 201 
171 202 
171 203 
171 204 
171 205 
171 206 
171 207 
171 208 
171 209 
171 210 
172 184 
172 211 
172 212 
172 213 
172 214 
172 215 
172 216 
172 217 
172 218 
172 219 
172 220 
172 221 
172 222 
172 223 
173 184 
173 224 
173 225 
173 226 
173 227 
173 228 
173 229 
173 230 
173 231 
173 232 
173 233 
173 234 
173 235 
173 236 
174 184 
174 237 
174 238 
174 239 
174 240 
174 241 
174 242 
174 243 
174 244 
174 245 
174 246 
174 247 
174 248 
174 249 
175 184 
175 250 
175 251 
175 252 
175 253 
175 254 
175 255 
175 256 
175 257 
175 258 
175 259 
175 260 
175 261 
175 262 
176 184 
176 263 
176 264 
176 265 
176 266 
176 267 
176 268 
176 269 
176 270 
176 271 
176 272 
176 273 
176 274 
176 275 
177 184 
177 276 
177 277 
177 278 
177 279 
177 280 
177 281 
177 282 
177 283 
177 284 
177 285 
177 286 
177 287 
177 288 
178 184 
178 289 
178 290 
178 291 
178 292 
178 293 
178 294 
178 295 
178 296 
178 297 
178 298 
178 299 
178 300 
178 301 
179 184 
179 302 
179 303 
179 304 
179 305 
179 306 
179 307 
179 308 
179 309 
179 310 
179 311 
179 312 
179 313 
179 314 
180 184 
180 315 
180 316 
180 317 
180 318 
180 319 
180 320 
180 321 
180 322 
180 323 
180 324 
180 325 
180 326 
180 327 
181 184 
181 328 
181 329 
181 330 
181 331 
181 332 
181 333 
181 334 
181 335 
181 336 
181 337 
181 338 
181 339 
181 340 
182 184 
182 341 
182 342 
182 343 
182 344 
182 345 
182 346 
182 347 
182 348 
182 349 
182 350 
182 351 
182 352 
182 353 
183 184 
183 354 
183 355 
183 356 
183 357 
183 358 
183 359 
183 360 
183 361 
183 362 
183 363 
183 364 
183 365 
183 366 
